5 6
3 4 1 2 8 6
6 1 8 2 7 4
5 9 3 9 9 5
8 4 1 3 2 6
3 7 2 8 6 4
5 6
3 4 1 2 8 6
6 1 8 2 7 4
5 9 3 9 9 5
8 4 1 3 2 6
3 7 2 1 2 3
2 2
9 10 9 10
4 3
1 -1 0
100 5 7
2 3 7
5 6 7
4 3
1 -100 0
100 5 7
2 3 7
5 6 7
4 3
1 1000 0
100 5 7
2 3 7
5 6 7
4 3
1 1 1
1 1 1
1 1 1
1 1 1
4 3
1 1 1
1 1 0
1 1 1
1 1 0
4 3
1 1 1
1 1 1
1 1 0
1 1 0
4 4
3 3 3 3
3 3 3 3
3 3 3 1
1 1 1 1
4 4
3 3 3 1
3 3 3 3
3 3 3 1
1 1 1 1
4 4
3 3
3 1 3 3 3
3 3 3 3 1 1
1 1 1
4 6
1 1 1 3 3 1
3 3 3 1 3 1
1 1 1 1 1 3
3 3 3 3 1 1
4 29
1 -1 0 0 1 -1 -1 -1 1 1 0 1 -1 -1 -1 0 -1 -1 1 -1 1 0 0 -1 0 -1 1 1 0
-1 1 0 -1 -1 0 1 0 -1 -1 -1 -1 1 1 0 -1 -1 0 -1 -1 1 -1 1 0 -1 1 0 1 -1
0 0 1 0 -1 1 0 0 1 1 0 -1 1 1 -1 -1 1 0 0 1 1 0 -1 1 0 -1 -1 1 1
1 -1 -1 -1 -1 -1 0 0 0 1 -1 0 0 0 -1 -1 0 -1 0 1 0 -1 1 0 1 1 -1 0 1

10 9
2 1 2 1 1 1 1 1 2
1 2 1 2 1 2 1 2 2
2 2 2 2 2 2 2 2 2
2 2 2 2 2 2 2 2 2
2 2 2 2 2 2 2 2 2
2 2 2 2 2 2 2 2 2
2 2 2 2 2 2 2 2 2
2 2 2 2 2 2 2 2 2
2 2 2 2 2 2 2 2 2
1 2 1 2 1 2 1 2 2

4 7
1 2 -3 4 -2 1 5
-1 3 5 -2 6 -3 4
2 1 3 -2 -1 3 1
3 -3 4 2 -3 4 3

5 6
3 4 1 2 8 6
6 1 8 2 7 4
5 9 3 9 9 5
8 4 1 3 2 6
3 7 2 8 6 4

5 6
3 4 1 2 8 6
6 1 8 2 7 4
5 9 3 9 9 5
8 4 1 3 2 6
3 7 2 1 2 3

5 6
1 1 1 1 1 1
2 2 2 2 2 2
3 3 3 3 3 3
4 4 4 4 4 4
5 5 5 5 5 5

10 1
2 3 4 5 6 -1 29 19 -10 19

1 10
-1 -1 -1 -1 -1 -1 -1 -1 1 1 

1 11
-1 0 0 -1 1 1 1 -1 1 -1 1 

4 7
1 2 -3 4 -2 1 5
-1 3 5 -2 6 -3 4
2 1 3 -2 -1 3 1
3 -3 4 2 -3 4 3 

12 14
1 2 2 1 1 1 1 1 1 1 1 1 1 2
1 1 2 2 1 1 1 1 1 1 1 1 1 1
1 1 1 2 2 1 1 1 1 1 1 1 1 1
1 1 1 1 2 2 1 1 1 1 1 1 1 1
1 1 1 1 1 2 2 1 1 1 1 1 1 1
1 1 1 1 1 1 2 2 1 1 1 1 1 1
1 1 1 1 1 1 1 2 2 1 1 1 1 1
1 1 1 1 1 1 1 1 2 2 1 1 1 1
1 1 1 1 1 1 1 1 1 2 2 1 1 1
1 1 1 1 1 1 1 1 1 1 2 2 1 1
1 1 1 1 1 1 1 1 1 1 1 2 1 1
1 1 1 1 1 1 1 1 1 1 1 1 2 2 
